(set-info :smt-lib-version 2.6)
(set-logic UF)
(set-info :source |Benchmarks from the paper: "Extending Sledgehammer with SMT Solvers" by Jasmin Blanchette, Sascha Bohme, and Lawrence C. Paulson, CADE 2011.  Translated to SMT2 by Andrew Reynolds and Morgan Deters.|)
(set-info :category "industrial")
(set-info :status unknown)
(declare-sort S1 0)
(declare-sort S2 0)
(declare-sort S3 0)
(declare-sort S4 0)
(declare-sort S5 0)
(declare-sort S6 0)
(declare-sort S7 0)
(declare-sort S8 0)
(declare-sort S9 0)
(declare-sort S10 0)
(declare-sort S11 0)
(declare-sort S12 0)
(declare-sort S13 0)
(declare-sort S14 0)
(declare-sort S15 0)
(declare-sort S16 0)
(declare-sort S17 0)
(declare-sort S18 0)
(declare-sort S19 0)
(declare-sort S20 0)
(declare-sort S21 0)
(declare-sort S22 0)
(declare-sort S23 0)
(declare-sort S24 0)
(declare-sort S25 0)
(declare-sort S26 0)
(declare-sort S27 0)
(declare-sort S28 0)
(declare-fun f1 () S1)
(declare-fun f2 () S1)
(declare-fun f3 (S2 S1) S1)
(declare-fun f4 () S2)
(declare-fun f5 (S4 S3) S1)
(declare-fun f6 (S5 S4) S4)
(declare-fun f7 (S6 S3) S5)
(declare-fun f8 () S6)
(declare-fun f9 (S7 S4) S1)
(declare-fun f10 (S8 S3) S7)
(declare-fun f11 () S8)
(declare-fun f12 () S6)
(declare-fun f13 () S4)
(declare-fun f14 (S9 S4) S7)
(declare-fun f15 () S9)
(declare-fun f16 () S4)
(declare-fun f17 () S6)
(declare-fun f18 (S10 S11) S3)
(declare-fun f19 (S12 S13) S10)
(declare-fun f20 (S14 S11) S12)
(declare-fun f21 () S14)
(declare-fun f22 () S11)
(declare-fun f23 (S15 S13) S13)
(declare-fun f24 (S16 S17) S15)
(declare-fun f25 () S16)
(declare-fun f26 () S17)
(declare-fun f27 () S13)
(declare-fun f28 (S18 S17) S11)
(declare-fun f29 (S19 S11) S18)
(declare-fun f30 () S19)
(declare-fun f31 (S20 S17) S17)
(declare-fun f32 (S21 S2) S20)
(declare-fun f33 () S21)
(declare-fun f34 () S4)
(declare-fun f35 () S9)
(declare-fun f36 () S5)
(declare-fun f37 (S17 S23) S1)
(declare-fun f38 (S11 S22) S17)
(declare-fun f39 (S24 S13) S15)
(declare-fun f40 (S25 S17) S24)
(declare-fun f41 () S25)
(declare-fun f42 (S26 S4) S3)
(declare-fun f43 () S26)
(declare-fun f44 () S1)
(declare-fun f45 () S13)
(declare-fun f46 () S24)
(declare-fun f47 (S28 S27) S4)
(declare-fun f48 () S28)
(assert (not (= f1 f2)))
(assert (forall ((?v0 S1)) (= (= (f3 f4 ?v0) f1) (not (= ?v0 f1)))))
(assert (forall ((?v0 S3) (?v1 S4) (?v2 S3)) (= (= (f5 (f6 (f7 f8 ?v0) ?v1) ?v2) f1) (or (= ?v2 ?v0) (= (f9 (f10 f11 ?v2) ?v1) f1)))))
(assert (forall ((?v0 S3) (?v1 S4) (?v2 S3)) (= (= (f5 (f6 (f7 f12 ?v0) ?v1) ?v2) f1) (=> (not (= ?v2 ?v0)) (= (f5 ?v1 ?v2) f1)))))
(assert (forall ((?v0 S3)) (= (= (f5 f13 ?v0) f1) false)))
(assert (not (= (f9 (f14 f15 f16) (f6 (f7 f17 (f18 (f19 (f20 f21 f22) (f23 (f24 f25 f26) f27)) (f28 (f29 f30 f22) (f31 (f32 f33 f4) f26)))) f34)) f1)))
(assert (= (f9 (f14 f15 f16) (f6 (f7 f17 (f18 (f19 (f20 f21 (f28 (f29 f30 f22) f26)) f27) f22)) f34)) f1))
(assert (forall ((?v0 S11) (?v1 S13) (?v2 S11) (?v3 S11) (?v4 S13) (?v5 S11)) (= (= (f18 (f19 (f20 f21 ?v0) ?v1) ?v2) (f18 (f19 (f20 f21 ?v3) ?v4) ?v5)) (and (= ?v0 ?v3) (and (= ?v1 ?v4) (= ?v2 ?v5))))))
(assert (forall ((?v0 S4) (?v1 S11) (?v2 S17) (?v3 S13)) (let ((?v_0 (f14 f35 ?v0)) (?v_1 (f29 f30 ?v1))) (=> (= (f9 ?v_0 (f6 (f7 f17 (f18 (f19 (f20 f21 (f28 ?v_1 ?v2)) ?v3) ?v1)) f34)) f1) (= (f9 ?v_0 (f6 (f7 f17 (f18 (f19 (f20 f21 ?v1) (f23 (f24 f25 ?v2) ?v3)) (f28 ?v_1 (f31 (f32 f33 f4) ?v2)))) f34)) f1)))))
(assert (forall ((?v0 S3) (?v1 S3) (?v2 S4)) (let ((?v_0 (f10 f11 ?v0))) (=> (= (f9 ?v_0 (f6 (f7 f17 ?v1) ?v2)) f1) (=> (=> (= ?v0 ?v1) false) (=> (=> (= (f9 ?v_0 ?v2) f1) false) false))))))
(assert (forall ((?v0 S3) (?v1 S4) (?v2 S3)) (let ((?v_0 (f10 f11 ?v0))) (=> (=> (not (= (f9 ?v_0 ?v1) f1)) (= ?v0 ?v2)) (= (f9 ?v_0 (f6 (f7 f17 ?v2) ?v1)) f1)))))
(assert (forall ((?v0 S3)) (=> (= (f9 (f10 f11 ?v0) f34) f1) false)))
(assert (forall ((?v0 S3) (?v1 S4)) (not (= f34 (f6 (f7 f17 ?v0) ?v1)))))
(assert (forall ((?v0 S3) (?v1 S4)) (not (= (f6 (f7 f17 ?v0) ?v1) f34))))
(assert (forall ((?v0 S3) (?v1 S3)) (= (= (f9 (f10 f11 ?v0) (f6 (f7 f17 ?v1) f34)) f1) (= ?v0 ?v1))))
(assert (forall ((?v0 S3) (?v1 S3) (?v2 S3) (?v3 S3)) (= (= (f6 (f7 f17 ?v0) (f6 (f7 f17 ?v1) f34)) (f6 (f7 f17 ?v2) (f6 (f7 f17 ?v3) f34))) (or (and (= ?v0 ?v2) (= ?v1 ?v3)) (and (= ?v0 ?v3) (= ?v1 ?v2))))))
(assert (forall ((?v0 S3) (?v1 S3)) (=> (= (f9 (f10 f11 ?v0) (f6 (f7 f17 ?v1) f34)) f1) (=> (=> (= ?v0 ?v1) false) false))))
(assert (forall ((?v0 S3) (?v1 S3)) (=> (= (f6 (f7 f17 ?v0) f34) (f6 (f7 f17 ?v1) f34)) (= ?v0 ?v1))))
(assert (forall ((?v0 S4) (?v1 S4) (?v2 S4)) (let ((?v_0 (f14 f35 ?v2))) (=> (= (f9 (f14 f35 ?v0) ?v1) f1) (=> (= (f9 ?v_0 ?v0) f1) (= (f9 ?v_0 ?v1) f1))))))
(assert (forall ((?v0 S4)) (= (f9 (f14 f35 ?v0) f34) f1)))
(assert (forall ((?v0 S4) (?v1 S3) (?v2 S4)) (let ((?v_0 (f14 f35 ?v0)) (?v_1 (f7 f17 ?v1))) (=> (= (f9 ?v_0 (f6 ?v_1 ?v2)) f1) (and (= (f9 ?v_0 (f6 ?v_1 f34)) f1) (= (f9 ?v_0 ?v2) f1))))))
(assert (forall ((?v0 S4) (?v1 S3) (?v2 S4)) (let ((?v_0 (f14 f35 ?v0)) (?v_1 (f7 f17 ?v1))) (=> (= (f9 ?v_0 (f6 ?v_1 f34)) f1) (=> (= (f9 ?v_0 ?v2) f1) (= (f9 ?v_0 (f6 ?v_1 ?v2)) f1))))))
(assert (forall ((?v0 S4) (?v1 S3)) (=> (= ?v0 f34) (not (= (f9 (f10 f11 ?v1) ?v0) f1)))))
(assert (forall ((?v0 S4)) (= (= (f6 f36 ?v0) f34) (forall ((?v1 S3)) (not (= (f5 ?v0 ?v1) f1))))))
(assert (forall ((?v0 S3)) (= (= (f9 (f10 f11 ?v0) f34) f1) false)))
(assert (forall ((?v0 S4)) (= (= f34 (f6 f36 ?v0)) (forall ((?v1 S3)) (not (= (f5 ?v0 ?v1) f1))))))
(assert (forall ((?v0 S4)) (= (forall ((?v1 S3)) (=> (= (f9 (f10 f11 ?v1) f34) f1) (= (f5 ?v0 ?v1) f1))) true)))
(assert (forall ((?v0 S4)) (= (exists ((?v1 S3)) (and (= (f9 (f10 f11 ?v1) f34) f1) (= (f5 ?v0 ?v1) f1))) false)))
(assert (forall ((?v0 S4)) (= (exists ((?v1 S3)) (= (f9 (f10 f11 ?v1) ?v0) f1)) (not (= ?v0 f34)))))
(assert (forall ((?v0 S4)) (= (forall ((?v1 S3)) (not (= (f9 (f10 f11 ?v1) ?v0) f1))) (= ?v0 f34))))
(assert (= f34 (f6 f36 f13)))
(assert (forall ((?v0 S3) (?v1 S4)) (=> (= (f9 (f10 f11 ?v0) ?v1) f1) (= (f6 (f7 f17 ?v0) ?v1) ?v1))))
(assert (forall ((?v0 S3) (?v1 S4) (?v2 S3)) (let ((?v_0 (f10 f11 ?v0))) (=> (= (f9 ?v_0 ?v1) f1) (= (f9 ?v_0 (f6 (f7 f17 ?v2) ?v1)) f1)))))
(assert (forall ((?v0 S3) (?v1 S4) (?v2 S4)) (let ((?v_0 (f10 f11 ?v0)) (?v_1 (f7 f17 ?v0))) (=> (not (= (f9 ?v_0 ?v1) f1)) (=> (not (= (f9 ?v_0 ?v2) f1)) (= (= (f6 ?v_1 ?v1) (f6 ?v_1 ?v2)) (= ?v1 ?v2)))))))
(assert (forall ((?v0 S3) (?v1 S4) (?v2 S3)) (= (= (f5 (f6 (f7 f17 ?v0) ?v1) ?v2) f1) (or (= ?v0 ?v2) (= (f5 ?v1 ?v2) f1)))))
(assert (forall ((?v0 S3) (?v1 S3) (?v2 S4)) (let ((?v_0 (f10 f11 ?v0))) (= (= (f9 ?v_0 (f6 (f7 f17 ?v1) ?v2)) f1) (or (= ?v0 ?v1) (= (f9 ?v_0 ?v2) f1))))))
(assert (forall ((?v0 S3) (?v1 S3) (?v2 S4)) (let ((?v_1 (f7 f17 ?v0)) (?v_0 (f7 f17 ?v1))) (= (f6 ?v_1 (f6 ?v_0 ?v2)) (f6 ?v_0 (f6 ?v_1 ?v2))))))
(assert (forall ((?v0 S3) (?v1 S4)) (let ((?v_0 (f7 f17 ?v0))) (let ((?v_1 (f6 ?v_0 ?v1))) (= (f6 ?v_0 ?v_1) ?v_1)))))
(assert (forall ((?v0 S3) (?v1 S4)) (= (f6 (f7 f17 ?v0) (f6 f36 ?v1)) (f6 f36 (f6 (f7 f12 ?v0) ?v1)))))
(assert (forall ((?v0 S3) (?v1 S4)) (= (f6 (f7 f17 ?v0) ?v1) (f6 f36 (f6 (f7 f8 ?v0) ?v1)))))
(assert (forall ((?v0 S3) (?v1 S4)) (= (f9 (f10 f11 ?v0) (f6 (f7 f17 ?v0) ?v1)) f1)))
(assert (forall ((?v0 S4) (?v1 S11) (?v2 S13) (?v3 S11) (?v4 S11)) (let ((?v_0 (f14 f35 ?v0))) (=> (= (f9 ?v_0 (f6 (f7 f17 (f18 (f19 (f20 f21 ?v1) ?v2) ?v3)) f34)) f1) (=> (forall ((?v5 S22) (?v6 S23)) (=> (= (f37 (f38 ?v4 ?v5) ?v6) f1) (= (f37 (f38 ?v1 ?v5) ?v6) f1))) (= (f9 ?v_0 (f6 (f7 f17 (f18 (f19 (f20 f21 ?v4) ?v2) ?v3)) f34)) f1))))))
(assert (forall ((?v0 S4) (?v1 S11) (?v2 S13) (?v3 S11) (?v4 S11)) (let ((?v_0 (f14 f35 ?v0)) (?v_1 (f19 (f20 f21 ?v1) ?v2))) (=> (= (f9 ?v_0 (f6 (f7 f17 (f18 ?v_1 ?v3)) f34)) f1) (=> (forall ((?v5 S22) (?v6 S23)) (=> (= (f37 (f38 ?v3 ?v5) ?v6) f1) (= (f37 (f38 ?v4 ?v5) ?v6) f1))) (= (f9 ?v_0 (f6 (f7 f17 (f18 ?v_1 ?v4)) f34)) f1))))))
(assert (forall ((?v0 S4) (?v1 S11) (?v2 S17) (?v3 S13) (?v4 S11) (?v5 S13)) (let ((?v_0 (f14 f35 ?v0)) (?v_1 (f29 f30 ?v1))) (=> (= (f9 ?v_0 (f6 (f7 f17 (f18 (f19 (f20 f21 (f28 ?v_1 ?v2)) ?v3) ?v4)) f34)) f1) (=> (= (f9 ?v_0 (f6 (f7 f17 (f18 (f19 (f20 f21 (f28 ?v_1 (f31 (f32 f33 f4) ?v2))) ?v5) ?v4)) f34)) f1) (= (f9 ?v_0 (f6 (f7 f17 (f18 (f19 (f20 f21 ?v1) (f23 (f39 (f40 f41 ?v2) ?v3) ?v5)) ?v4)) f34)) f1))))))
(assert (forall ((?v0 S4) (?v1 S11) (?v2 S13) (?v3 S11) (?v4 S11) (?v5 S11)) (let ((?v_0 (f14 f35 ?v0))) (=> (= (f9 ?v_0 (f6 (f7 f17 (f18 (f19 (f20 f21 ?v1) ?v2) ?v3)) f34)) f1) (=> (forall ((?v6 S22) (?v7 S23)) (=> (= (f37 (f38 ?v4 ?v6) ?v7) f1) (forall ((?v8 S23)) (=> (forall ((?v9 S22)) (=> (= (f37 (f38 ?v1 ?v9) ?v7) f1) (= (f37 (f38 ?v3 ?v9) ?v8) f1))) (= (f37 (f38 ?v5 ?v6) ?v8) f1))))) (= (f9 ?v_0 (f6 (f7 f17 (f18 (f19 (f20 f21 ?v4) ?v2) ?v5)) f34)) f1))))))
(assert (forall ((?v0 S3)) (= (f42 f43 (f6 (f7 f17 ?v0) f34)) ?v0)))
(assert (forall ((?v0 S3)) (= (= (f5 f34 ?v0) f1) (= f44 f1))))
(assert (forall ((?v0 S3)) (= (= (f5 f34 ?v0) f1) (= f44 f1))))
(assert (forall ((?v0 S4) (?v1 S11)) (= (f9 (f14 f35 ?v0) (f6 (f7 f17 (f18 (f19 (f20 f21 ?v1) f45) ?v1)) f34)) f1)))
(assert (forall ((?v0 S4) (?v1 S11) (?v2 S13) (?v3 S11) (?v4 S13) (?v5 S11)) (let ((?v_0 (f14 f35 ?v0)) (?v_1 (f20 f21 ?v1))) (=> (= (f9 ?v_0 (f6 (f7 f17 (f18 (f19 ?v_1 ?v2) ?v3)) f34)) f1) (=> (= (f9 ?v_0 (f6 (f7 f17 (f18 (f19 (f20 f21 ?v3) ?v4) ?v5)) f34)) f1) (= (f9 ?v_0 (f6 (f7 f17 (f18 (f19 ?v_1 (f23 (f39 f46 ?v2) ?v4)) ?v5)) f34)) f1))))))
(assert (forall ((?v0 S4) (?v1 S4)) (= (= (f9 (f14 f15 ?v0) ?v1) f1) (forall ((?v2 S27)) (=> (forall ((?v3 S3)) (=> (= (f9 (f10 f11 ?v3) ?v0) f1) (= (f5 (f47 f48 ?v2) ?v3) f1))) (forall ((?v3 S3)) (=> (= (f9 (f10 f11 ?v3) ?v1) f1) (= (f5 (f47 f48 ?v2) ?v3) f1))))))))
(assert (forall ((?v0 S3)) (=> (forall ((?v1 S11) (?v2 S13) (?v3 S11)) (=> (= ?v0 (f18 (f19 (f20 f21 ?v1) ?v2) ?v3)) false)) false)))
(assert (forall ((?v0 S13) (?v1 S13)) (not (= (f23 (f39 f46 ?v0) ?v1) f45))))
(assert (forall ((?v0 S13) (?v1 S13)) (not (= f45 (f23 (f39 f46 ?v0) ?v1)))))
(assert (forall ((?v0 S17) (?v1 S13) (?v2 S13)) (not (= (f23 (f39 (f40 f41 ?v0) ?v1) ?v2) f45))))
(assert (forall ((?v0 S17) (?v1 S13) (?v2 S13)) (not (= f45 (f23 (f39 (f40 f41 ?v0) ?v1) ?v2)))))
(assert (forall ((?v0 S17) (?v1 S13) (?v2 S13) (?v3 S13) (?v4 S13)) (not (= (f23 (f39 (f40 f41 ?v0) ?v1) ?v2) (f23 (f39 f46 ?v3) ?v4)))))
(assert (forall ((?v0 S13) (?v1 S13) (?v2 S17) (?v3 S13) (?v4 S13)) (not (= (f23 (f39 f46 ?v0) ?v1) (f23 (f39 (f40 f41 ?v2) ?v3) ?v4)))))
(assert (forall ((?v0 S17) (?v1 S13)) (not (= f45 (f23 (f24 f25 ?v0) ?v1)))))
(assert (forall ((?v0 S17) (?v1 S13)) (not (= (f23 (f24 f25 ?v0) ?v1) f45))))
(assert (forall ((?v0 S17) (?v1 S13) (?v2 S17) (?v3 S13)) (= (= (f23 (f24 f25 ?v0) ?v1) (f23 (f24 f25 ?v2) ?v3)) (and (= ?v0 ?v2) (= ?v1 ?v3)))))
(assert (forall ((?v0 S17) (?v1 S13) (?v2 S13) (?v3 S17) (?v4 S13) (?v5 S13)) (= (= (f23 (f39 (f40 f41 ?v0) ?v1) ?v2) (f23 (f39 (f40 f41 ?v3) ?v4) ?v5)) (and (= ?v0 ?v3) (and (= ?v1 ?v4) (= ?v2 ?v5))))))
(assert (forall ((?v0 S13) (?v1 S13) (?v2 S13) (?v3 S13)) (= (= (f23 (f39 f46 ?v0) ?v1) (f23 (f39 f46 ?v2) ?v3)) (and (= ?v0 ?v2) (= ?v1 ?v3)))))
(assert (forall ((?v0 S17) (?v1 S13) (?v2 S13) (?v3 S17) (?v4 S13)) (not (= (f23 (f39 (f40 f41 ?v0) ?v1) ?v2) (f23 (f24 f25 ?v3) ?v4)))))
(assert (forall ((?v0 S17) (?v1 S13) (?v2 S17) (?v3 S13) (?v4 S13)) (not (= (f23 (f24 f25 ?v0) ?v1) (f23 (f39 (f40 f41 ?v2) ?v3) ?v4)))))
(assert (forall ((?v0 S17) (?v1 S13) (?v2 S13) (?v3 S13)) (not (= (f23 (f24 f25 ?v0) ?v1) (f23 (f39 f46 ?v2) ?v3)))))
(assert (forall ((?v0 S13) (?v1 S13) (?v2 S17) (?v3 S13)) (not (= (f23 (f39 f46 ?v0) ?v1) (f23 (f24 f25 ?v2) ?v3)))))
(assert (forall ((?v0 S3) (?v1 S4)) (=> (= (f9 (f10 f11 ?v0) ?v1) f1) (=> (forall ((?v2 S4)) (=> (= ?v1 (f6 (f7 f17 ?v0) ?v2)) (=> (not (= (f9 (f10 f11 ?v0) ?v2) f1)) false))) false))))
(check-sat)
(exit)
